Instance0
Gap



0
CPXPARAM_MIP_Cuts_CPXPARAM_MIP_Cuts_MIRCut-CPXPARAM_MIP_Cuts_Covers-CPXPARAM_MIP_Cuts_FlowCovers 1
Instance1
CPXPARAM_MIP_Cuts_CPXPARAM_MIP_Cuts_MIRCut-CPXPARAM_MIP_Cuts_Covers-CPXPARAM_MIP_Cuts_FlowCovers 0
Instance2
CPXPARAM_MIP_Cuts_CPXPARAM_MIP_Cuts_MIRCut-CPXPARAM_MIP_Cuts_Covers-CPXPARAM_MIP_Cuts_FlowCovers 1
Instance3
Gap



77.40%
77.40%
CPXPARAM_MIP_Cuts_CPXPARAM_MIP_Cuts_MIRCut-CPXPARAM_MIP_Cuts_Covers-CPXPARAM_MIP_Cuts_FlowCovers 2
Instance4
CPXPARAM_MIP_Cuts_CPXPARAM_MIP_Cuts_MIRCut-CPXPARAM_MIP_Cuts_Covers-CPXPARAM_MIP_Cuts_FlowCovers 0
Instance5
CPXPARAM_MIP_Cuts_CPXPARAM_MIP_Cuts_MIRCut-CPXPARAM_MIP_Cuts_Covers-CPXPARAM_MIP_Cuts_FlowCovers 0
Instance6
Gap


0.35%
0.35%
0.35%
0.35%
CPXPARAM_MIP_Cuts_CPXPARAM_MIP_Cuts_MIRCut-CPXPARAM_MIP_Cuts_Covers-CPXPARAM_MIP_Cuts_FlowCovers 0
Instance7
CPXPARAM_MIP_Cuts_CPXPARAM_MIP_Cuts_MIRCut-CPXPARAM_MIP_Cuts_Covers-CPXPARAM_MIP_Cuts_FlowCovers 0
Instance8
CPXPARAM_MIP_Cuts_CPXPARAM_MIP_Cuts_MIRCut-CPXPARAM_MIP_Cuts_Covers-CPXPARAM_MIP_Cuts_FlowCovers 0
Instance9
Gap

0.00%
0
CPXPARAM_MIP_Cuts_CPXPARAM_MIP_Cuts_MIRCut-CPXPARAM_MIP_Cuts_Covers-CPXPARAM_MIP_Cuts_FlowCovers 0
Instance10
CPXPARAM_MIP_Cuts_CPXPARAM_MIP_Cuts_MIRCut-CPXPARAM_MIP_Cuts_Covers-CPXPARAM_MIP_Cuts_FlowCovers 0
Instance11
CPXPARAM_MIP_Cuts_CPXPARAM_MIP_Cuts_MIRCut-CPXPARAM_MIP_Cuts_Covers-CPXPARAM_MIP_Cuts_FlowCovers 0
Instance12
Gap



0
CPXPARAM_MIP_Cuts_CPXPARAM_MIP_Cuts_MIRCut-CPXPARAM_MIP_Cuts_Covers-CPXPARAM_MIP_Cuts_FlowCovers 0
Instance13
CPXPARAM_MIP_Cuts_CPXPARAM_MIP_Cuts_MIRCut-CPXPARAM_MIP_Cuts_Covers-CPXPARAM_MIP_Cuts_FlowCovers 0
Instance14
CPXPARAM_MIP_Cuts_CPXPARAM_MIP_Cuts_MIRCut-CPXPARAM_MIP_Cuts_Covers-CPXPARAM_MIP_Cuts_FlowCovers 2
Instance15
Gap



82.48%
82.48%
CPXPARAM_MIP_Cuts_CPXPARAM_MIP_Cuts_MIRCut-CPXPARAM_MIP_Cuts_Covers-CPXPARAM_MIP_Cuts_FlowCovers 2
Instance16
CPXPARAM_MIP_Cuts_CPXPARAM_MIP_Cuts_MIRCut-CPXPARAM_MIP_Cuts_Covers-CPXPARAM_MIP_Cuts_FlowCovers 0
Instance17
CPXPARAM_MIP_Cuts_CPXPARAM_MIP_Cuts_MIRCut-CPXPARAM_MIP_Cuts_Covers-CPXPARAM_MIP_Cuts_FlowCovers 0
Instance18
Gap
111.50%
92.96%
0.13%
0.13%
0.13%
0.13%
CPXPARAM_MIP_Cuts_CPXPARAM_MIP_Cuts_MIRCut-CPXPARAM_MIP_Cuts_Covers-CPXPARAM_MIP_Cuts_FlowCovers 0
Instance19
CPXPARAM_MIP_Cuts_CPXPARAM_MIP_Cuts_MIRCut-CPXPARAM_MIP_Cuts_Covers-CPXPARAM_MIP_Cuts_FlowCovers 0
Instance20
CPXPARAM_MIP_Cuts_CPXPARAM_MIP_Cuts_MIRCut-CPXPARAM_MIP_Cuts_Covers-CPXPARAM_MIP_Cuts_FlowCovers 0
Instance21
Gap

23.59%
23.59%
23.59%
CPXPARAM_MIP_Cuts_CPXPARAM_MIP_Cuts_MIRCut-CPXPARAM_MIP_Cuts_Covers-CPXPARAM_MIP_Cuts_FlowCovers 1
Instance22
CPXPARAM_MIP_Cuts_CPXPARAM_MIP_Cuts_MIRCut-CPXPARAM_MIP_Cuts_Covers-CPXPARAM_MIP_Cuts_FlowCovers 0
Instance23
CPXPARAM_MIP_Cuts_CPXPARAM_MIP_Cuts_MIRCut-CPXPARAM_MIP_Cuts_Covers-CPXPARAM_MIP_Cuts_FlowCovers 0
Instance24
Gap



10.84%
10.84%
CPXPARAM_MIP_Cuts_CPXPARAM_MIP_Cuts_MIRCut-CPXPARAM_MIP_Cuts_Covers-CPXPARAM_MIP_Cuts_FlowCovers 1
Instance25
CPXPARAM_MIP_Cuts_CPXPARAM_MIP_Cuts_MIRCut-CPXPARAM_MIP_Cuts_Covers-CPXPARAM_MIP_Cuts_FlowCovers 0
Instance26
CPXPARAM_MIP_Cuts_CPXPARAM_MIP_Cuts_MIRCut-CPXPARAM_MIP_Cuts_Covers-CPXPARAM_MIP_Cuts_FlowCovers 2
Instance27
Gap



43.98%
43.98%
CPXPARAM_MIP_Cuts_CPXPARAM_MIP_Cuts_MIRCut-CPXPARAM_MIP_Cuts_Covers-CPXPARAM_MIP_Cuts_FlowCovers 2
Instance28
CPXPARAM_MIP_Cuts_CPXPARAM_MIP_Cuts_MIRCut-CPXPARAM_MIP_Cuts_Covers-CPXPARAM_MIP_Cuts_FlowCovers 1
Instance29
CPXPARAM_MIP_Cuts_CPXPARAM_MIP_Cuts_MIRCut-CPXPARAM_MIP_Cuts_Covers-CPXPARAM_MIP_Cuts_FlowCovers 1
Instance30
Gap


0.01%
CPXPARAM_MIP_Cuts_CPXPARAM_MIP_Cuts_MIRCut-CPXPARAM_MIP_Cuts_Covers-CPXPARAM_MIP_Cuts_FlowCovers 0
Instance31
CPXPARAM_MIP_Cuts_CPXPARAM_MIP_Cuts_MIRCut-CPXPARAM_MIP_Cuts_Covers-CPXPARAM_MIP_Cuts_FlowCovers 0
Instance32
CPXPARAM_MIP_Cuts_CPXPARAM_MIP_Cuts_MIRCut-CPXPARAM_MIP_Cuts_Covers-CPXPARAM_MIP_Cuts_FlowCovers 0
Instance33
Gap

0.02%
0
CPXPARAM_MIP_Cuts_CPXPARAM_MIP_Cuts_MIRCut-CPXPARAM_MIP_Cuts_Covers-CPXPARAM_MIP_Cuts_FlowCovers 0
Instance34
CPXPARAM_MIP_Cuts_CPXPARAM_MIP_Cuts_MIRCut-CPXPARAM_MIP_Cuts_Covers-CPXPARAM_MIP_Cuts_FlowCovers 0
Instance35
CPXPARAM_MIP_Cuts_CPXPARAM_MIP_Cuts_MIRCut-CPXPARAM_MIP_Cuts_Covers-CPXPARAM_MIP_Cuts_FlowCovers 0
Instance36
Gap



0
CPXPARAM_MIP_Cuts_CPXPARAM_MIP_Cuts_MIRCut-CPXPARAM_MIP_Cuts_Covers-CPXPARAM_MIP_Cuts_FlowCovers 1
Instance37
CPXPARAM_MIP_Cuts_CPXPARAM_MIP_Cuts_MIRCut-CPXPARAM_MIP_Cuts_Covers-CPXPARAM_MIP_Cuts_FlowCovers 0
Instance38
CPXPARAM_MIP_Cuts_CPXPARAM_MIP_Cuts_MIRCut-CPXPARAM_MIP_Cuts_Covers-CPXPARAM_MIP_Cuts_FlowCovers 1
Instance39
Gap

37.35%
37.35%
37.35%
37.35%
CPXPARAM_MIP_Cuts_CPXPARAM_MIP_Cuts_MIRCut-CPXPARAM_MIP_Cuts_Covers-CPXPARAM_MIP_Cuts_FlowCovers 0
Instance40
CPXPARAM_MIP_Cuts_CPXPARAM_MIP_Cuts_MIRCut-CPXPARAM_MIP_Cuts_Covers-CPXPARAM_MIP_Cuts_FlowCovers 0
Instance41
CPXPARAM_MIP_Cuts_CPXPARAM_MIP_Cuts_MIRCut-CPXPARAM_MIP_Cuts_Covers-CPXPARAM_MIP_Cuts_FlowCovers 3
Instance42
Gap

1.86%
1.86%
1.86%
1.86%
1.86%
CPXPARAM_MIP_Cuts_CPXPARAM_MIP_Cuts_MIRCut-CPXPARAM_MIP_Cuts_Covers-CPXPARAM_MIP_Cuts_FlowCovers 1
Instance43
CPXPARAM_MIP_Cuts_CPXPARAM_MIP_Cuts_MIRCut-CPXPARAM_MIP_Cuts_Covers-CPXPARAM_MIP_Cuts_FlowCovers 0
Instance44
CPXPARAM_MIP_Cuts_CPXPARAM_MIP_Cuts_MIRCut-CPXPARAM_MIP_Cuts_Covers-CPXPARAM_MIP_Cuts_FlowCovers 0
Instance45
Gap
112.51%
98.57%
3.14%
3.14%
3.14%
3.14%
CPXPARAM_MIP_Cuts_CPXPARAM_MIP_Cuts_MIRCut-CPXPARAM_MIP_Cuts_Covers-CPXPARAM_MIP_Cuts_FlowCovers 0
Instance46
CPXPARAM_MIP_Cuts_CPXPARAM_MIP_Cuts_MIRCut-CPXPARAM_MIP_Cuts_Covers-CPXPARAM_MIP_Cuts_FlowCovers 0
Instance47
CPXPARAM_MIP_Cuts_CPXPARAM_MIP_Cuts_MIRCut-CPXPARAM_MIP_Cuts_Covers-CPXPARAM_MIP_Cuts_FlowCovers 0
Instance48
Gap



0
CPXPARAM_MIP_Cuts_CPXPARAM_MIP_Cuts_MIRCut-CPXPARAM_MIP_Cuts_Covers-CPXPARAM_MIP_Cuts_FlowCovers 1
Instance49
CPXPARAM_MIP_Cuts_CPXPARAM_MIP_Cuts_MIRCut-CPXPARAM_MIP_Cuts_Covers-CPXPARAM_MIP_Cuts_FlowCovers 0
Instance50
CPXPARAM_MIP_Cuts_CPXPARAM_MIP_Cuts_MIRCut-CPXPARAM_MIP_Cuts_Covers-CPXPARAM_MIP_Cuts_FlowCovers 0
Instance51
Gap



52.86%
52.86%
CPXPARAM_MIP_Cuts_CPXPARAM_MIP_Cuts_MIRCut-CPXPARAM_MIP_Cuts_Covers-CPXPARAM_MIP_Cuts_FlowCovers 0
Instance52
CPXPARAM_MIP_Cuts_CPXPARAM_MIP_Cuts_MIRCut-CPXPARAM_MIP_Cuts_Covers-CPXPARAM_MIP_Cuts_FlowCovers 0
Instance53
CPXPARAM_MIP_Cuts_CPXPARAM_MIP_Cuts_MIRCut-CPXPARAM_MIP_Cuts_Covers-CPXPARAM_MIP_Cuts_FlowCovers 1
Instance54
Gap
110.91%
93.14%
93.14%
12.16%
12.16%
CPXPARAM_MIP_Cuts_CPXPARAM_MIP_Cuts_MIRCut-CPXPARAM_MIP_Cuts_Covers-CPXPARAM_MIP_Cuts_FlowCovers 0
Instance55
CPXPARAM_MIP_Cuts_CPXPARAM_MIP_Cuts_MIRCut-CPXPARAM_MIP_Cuts_Covers-CPXPARAM_MIP_Cuts_FlowCovers 0
Instance56
CPXPARAM_MIP_Cuts_CPXPARAM_MIP_Cuts_MIRCut-CPXPARAM_MIP_Cuts_Covers-CPXPARAM_MIP_Cuts_FlowCovers 1
Instance57
Gap
114.31%
97.72%
0.46%
0.46%
0.46%
0.46%
0.46%
CPXPARAM_MIP_Cuts_CPXPARAM_MIP_Cuts_MIRCut-CPXPARAM_MIP_Cuts_Covers-CPXPARAM_MIP_Cuts_FlowCovers 0
Instance58
CPXPARAM_MIP_Cuts_CPXPARAM_MIP_Cuts_MIRCut-CPXPARAM_MIP_Cuts_Covers-CPXPARAM_MIP_Cuts_FlowCovers 0
Instance59
CPXPARAM_MIP_Cuts_CPXPARAM_MIP_Cuts_MIRCut-CPXPARAM_MIP_Cuts_Covers-CPXPARAM_MIP_Cuts_FlowCovers 1
Instance60
Gap



0
CPXPARAM_MIP_Cuts_CPXPARAM_MIP_Cuts_MIRCut-CPXPARAM_MIP_Cuts_Covers-CPXPARAM_MIP_Cuts_FlowCovers 2
Instance61
CPXPARAM_MIP_Cuts_CPXPARAM_MIP_Cuts_MIRCut-CPXPARAM_MIP_Cuts_Covers-CPXPARAM_MIP_Cuts_FlowCovers 0
Instance62
CPXPARAM_MIP_Cuts_CPXPARAM_MIP_Cuts_MIRCut-CPXPARAM_MIP_Cuts_Covers-CPXPARAM_MIP_Cuts_FlowCovers 0
Instance63
Gap



69.26%
69.26%
CPXPARAM_MIP_Cuts_CPXPARAM_MIP_Cuts_MIRCut-CPXPARAM_MIP_Cuts_Covers-CPXPARAM_MIP_Cuts_FlowCovers 2
Instance64
CPXPARAM_MIP_Cuts_CPXPARAM_MIP_Cuts_MIRCut-CPXPARAM_MIP_Cuts_Covers-CPXPARAM_MIP_Cuts_FlowCovers 0
Instance65
CPXPARAM_MIP_Cuts_CPXPARAM_MIP_Cuts_MIRCut-CPXPARAM_MIP_Cuts_Covers-CPXPARAM_MIP_Cuts_FlowCovers 0
Instance66
Gap

0.39%
0.39%
0.39%
0.39%
0.39%
CPXPARAM_MIP_Cuts_CPXPARAM_MIP_Cuts_MIRCut-CPXPARAM_MIP_Cuts_Covers-CPXPARAM_MIP_Cuts_FlowCovers 1
Instance67
CPXPARAM_MIP_Cuts_CPXPARAM_MIP_Cuts_MIRCut-CPXPARAM_MIP_Cuts_Covers-CPXPARAM_MIP_Cuts_FlowCovers 0
Instance68
CPXPARAM_MIP_Cuts_CPXPARAM_MIP_Cuts_MIRCut-CPXPARAM_MIP_Cuts_Covers-CPXPARAM_MIP_Cuts_FlowCovers 0
Instance69
Gap


3.15%
3.15%
3.15%
3.15%
0.00%
CPXPARAM_MIP_Cuts_CPXPARAM_MIP_Cuts_MIRCut-CPXPARAM_MIP_Cuts_Covers-CPXPARAM_MIP_Cuts_FlowCovers 0
Instance70
CPXPARAM_MIP_Cuts_CPXPARAM_MIP_Cuts_MIRCut-CPXPARAM_MIP_Cuts_Covers-CPXPARAM_MIP_Cuts_FlowCovers 0
Instance71
CPXPARAM_MIP_Cuts_CPXPARAM_MIP_Cuts_MIRCut-CPXPARAM_MIP_Cuts_Covers-CPXPARAM_MIP_Cuts_FlowCovers 0
Instance72
Gap

10.00%
10.00%
10.00%
10.00%
10.00%
10.00%
10.00%
CPXPARAM_MIP_Cuts_CPXPARAM_MIP_Cuts_MIRCut-CPXPARAM_MIP_Cuts_Covers-CPXPARAM_MIP_Cuts_FlowCovers 0
Instance73
CPXPARAM_MIP_Cuts_CPXPARAM_MIP_Cuts_MIRCut-CPXPARAM_MIP_Cuts_Covers-CPXPARAM_MIP_Cuts_FlowCovers 1
Instance74
CPXPARAM_MIP_Cuts_CPXPARAM_MIP_Cuts_MIRCut-CPXPARAM_MIP_Cuts_Covers-CPXPARAM_MIP_Cuts_FlowCovers 1
Instance75
Gap



0
48.59%
CPXPARAM_MIP_Cuts_CPXPARAM_MIP_Cuts_MIRCut-CPXPARAM_MIP_Cuts_Covers-CPXPARAM_MIP_Cuts_FlowCovers 2
Instance76
CPXPARAM_MIP_Cuts_CPXPARAM_MIP_Cuts_MIRCut-CPXPARAM_MIP_Cuts_Covers-CPXPARAM_MIP_Cuts_FlowCovers 0
Instance77
CPXPARAM_MIP_Cuts_CPXPARAM_MIP_Cuts_MIRCut-CPXPARAM_MIP_Cuts_Covers-CPXPARAM_MIP_Cuts_FlowCovers 0
Instance78
Gap
0.00%
CPXPARAM_MIP_Cuts_CPXPARAM_MIP_Cuts_MIRCut-CPXPARAM_MIP_Cuts_Covers-CPXPARAM_MIP_Cuts_FlowCovers 0
Instance79
CPXPARAM_MIP_Cuts_CPXPARAM_MIP_Cuts_MIRCut-CPXPARAM_MIP_Cuts_Covers-CPXPARAM_MIP_Cuts_FlowCovers 0
Instance80
CPXPARAM_MIP_Cuts_CPXPARAM_MIP_Cuts_MIRCut-CPXPARAM_MIP_Cuts_Covers-CPXPARAM_MIP_Cuts_FlowCovers 0
Instance81
Gap

0.42%
0.42%
0.42%
0.42%
0.42%
CPXPARAM_MIP_Cuts_CPXPARAM_MIP_Cuts_MIRCut-CPXPARAM_MIP_Cuts_Covers-CPXPARAM_MIP_Cuts_FlowCovers 1
Instance82
CPXPARAM_MIP_Cuts_CPXPARAM_MIP_Cuts_MIRCut-CPXPARAM_MIP_Cuts_Covers-CPXPARAM_MIP_Cuts_FlowCovers 0
Instance83
CPXPARAM_MIP_Cuts_CPXPARAM_MIP_Cuts_MIRCut-CPXPARAM_MIP_Cuts_Covers-CPXPARAM_MIP_Cuts_FlowCovers 0
Instance84
Gap



0
CPXPARAM_MIP_Cuts_CPXPARAM_MIP_Cuts_MIRCut-CPXPARAM_MIP_Cuts_Covers-CPXPARAM_MIP_Cuts_FlowCovers 2
Instance85
CPXPARAM_MIP_Cuts_CPXPARAM_MIP_Cuts_MIRCut-CPXPARAM_MIP_Cuts_Covers-CPXPARAM_MIP_Cuts_FlowCovers 0
Instance86
CPXPARAM_MIP_Cuts_CPXPARAM_MIP_Cuts_MIRCut-CPXPARAM_MIP_Cuts_Covers-CPXPARAM_MIP_Cuts_FlowCovers 0
Instance87
Gap
111.49%
406.57%
82.87%
82.87%
82.87%
60.38%
60.38%
CPXPARAM_MIP_Cuts_CPXPARAM_MIP_Cuts_MIRCut-CPXPARAM_MIP_Cuts_Covers-CPXPARAM_MIP_Cuts_FlowCovers 0
Instance88
CPXPARAM_MIP_Cuts_CPXPARAM_MIP_Cuts_MIRCut-CPXPARAM_MIP_Cuts_Covers-CPXPARAM_MIP_Cuts_FlowCovers 0
Instance89
CPXPARAM_MIP_Cuts_CPXPARAM_MIP_Cuts_MIRCut-CPXPARAM_MIP_Cuts_Covers-CPXPARAM_MIP_Cuts_FlowCovers 3
Instance90
Gap
120.75%
227.70%
17.33%
17.33%
0.85%
0.85%
0.85%
0.85%
CPXPARAM_MIP_Cuts_CPXPARAM_MIP_Cuts_MIRCut-CPXPARAM_MIP_Cuts_Covers-CPXPARAM_MIP_Cuts_FlowCovers 1
Instance91
CPXPARAM_MIP_Cuts_CPXPARAM_MIP_Cuts_MIRCut-CPXPARAM_MIP_Cuts_Covers-CPXPARAM_MIP_Cuts_FlowCovers 0
Instance92
CPXPARAM_MIP_Cuts_CPXPARAM_MIP_Cuts_MIRCut-CPXPARAM_MIP_Cuts_Covers-CPXPARAM_MIP_Cuts_FlowCovers 0
Instance93
Gap

5.20%
5.20%
5.20%
5.20%
5.20%
CPXPARAM_MIP_Cuts_CPXPARAM_MIP_Cuts_MIRCut-CPXPARAM_MIP_Cuts_Covers-CPXPARAM_MIP_Cuts_FlowCovers 0
Instance94
CPXPARAM_MIP_Cuts_CPXPARAM_MIP_Cuts_MIRCut-CPXPARAM_MIP_Cuts_Covers-CPXPARAM_MIP_Cuts_FlowCovers 0
Instance95
CPXPARAM_MIP_Cuts_CPXPARAM_MIP_Cuts_MIRCut-CPXPARAM_MIP_Cuts_Covers-CPXPARAM_MIP_Cuts_FlowCovers 1
Instance96
Gap



0
CPXPARAM_MIP_Cuts_CPXPARAM_MIP_Cuts_MIRCut-CPXPARAM_MIP_Cuts_Covers-CPXPARAM_MIP_Cuts_FlowCovers 1
Instance97
CPXPARAM_MIP_Cuts_CPXPARAM_MIP_Cuts_MIRCut-CPXPARAM_MIP_Cuts_Covers-CPXPARAM_MIP_Cuts_FlowCovers 0
Instance98
CPXPARAM_MIP_Cuts_CPXPARAM_MIP_Cuts_MIRCut-CPXPARAM_MIP_Cuts_Covers-CPXPARAM_MIP_Cuts_FlowCovers 1
Instance99
Gap



0
CPXPARAM_MIP_Cuts_CPXPARAM_MIP_Cuts_MIRCut-CPXPARAM_MIP_Cuts_Covers-CPXPARAM_MIP_Cuts_FlowCovers 1
Instance100
CPXPARAM_MIP_Cuts_CPXPARAM_MIP_Cuts_MIRCut-CPXPARAM_MIP_Cuts_Covers-CPXPARAM_MIP_Cuts_FlowCovers 0
Instance101
CPXPARAM_MIP_Cuts_CPXPARAM_MIP_Cuts_MIRCut-CPXPARAM_MIP_Cuts_Covers-CPXPARAM_MIP_Cuts_FlowCovers 2
Instance102
Gap


0.14%
0.14%
0.14%
0
CPXPARAM_MIP_Cuts_CPXPARAM_MIP_Cuts_MIRCut-CPXPARAM_MIP_Cuts_Covers-CPXPARAM_MIP_Cuts_FlowCovers 0
Instance103
CPXPARAM_MIP_Cuts_CPXPARAM_MIP_Cuts_MIRCut-CPXPARAM_MIP_Cuts_Covers-CPXPARAM_MIP_Cuts_FlowCovers 0
Instance104
CPXPARAM_MIP_Cuts_CPXPARAM_MIP_Cuts_MIRCut-CPXPARAM_MIP_Cuts_Covers-CPXPARAM_MIP_Cuts_FlowCovers 0
Instance105
Gap


40.80%
40.66%
CPXPARAM_MIP_Cuts_CPXPARAM_MIP_Cuts_MIRCut-CPXPARAM_MIP_Cuts_Covers-CPXPARAM_MIP_Cuts_FlowCovers 0
Instance106
CPXPARAM_MIP_Cuts_CPXPARAM_MIP_Cuts_MIRCut-CPXPARAM_MIP_Cuts_Covers-CPXPARAM_MIP_Cuts_FlowCovers 0
Instance107
CPXPARAM_MIP_Cuts_CPXPARAM_MIP_Cuts_MIRCut-CPXPARAM_MIP_Cuts_Covers-CPXPARAM_MIP_Cuts_FlowCovers 0
Instance108
Gap



0
CPXPARAM_MIP_Cuts_CPXPARAM_MIP_Cuts_MIRCut-CPXPARAM_MIP_Cuts_Covers-CPXPARAM_MIP_Cuts_FlowCovers 1
Instance109
CPXPARAM_MIP_Cuts_CPXPARAM_MIP_Cuts_MIRCut-CPXPARAM_MIP_Cuts_Covers-CPXPARAM_MIP_Cuts_FlowCovers 0
Instance110
CPXPARAM_MIP_Cuts_CPXPARAM_MIP_Cuts_MIRCut-CPXPARAM_MIP_Cuts_Covers-CPXPARAM_MIP_Cuts_FlowCovers 2
Instance111
Gap


0
CPXPARAM_MIP_Cuts_CPXPARAM_MIP_Cuts_MIRCut-CPXPARAM_MIP_Cuts_Covers-CPXPARAM_MIP_Cuts_FlowCovers 1
Instance112
CPXPARAM_MIP_Cuts_CPXPARAM_MIP_Cuts_MIRCut-CPXPARAM_MIP_Cuts_Covers-CPXPARAM_MIP_Cuts_FlowCovers 0
Instance113
CPXPARAM_MIP_Cuts_CPXPARAM_MIP_Cuts_MIRCut-CPXPARAM_MIP_Cuts_Covers-CPXPARAM_MIP_Cuts_FlowCovers 1
Instance114
Gap

0.21%
0.21%
0.21%
0.21%
0.21%
0.21%
CPXPARAM_MIP_Cuts_CPXPARAM_MIP_Cuts_MIRCut-CPXPARAM_MIP_Cuts_Covers-CPXPARAM_MIP_Cuts_FlowCovers 1
Instance115
CPXPARAM_MIP_Cuts_CPXPARAM_MIP_Cuts_MIRCut-CPXPARAM_MIP_Cuts_Covers-CPXPARAM_MIP_Cuts_FlowCovers 0
Instance116
CPXPARAM_MIP_Cuts_CPXPARAM_MIP_Cuts_MIRCut-CPXPARAM_MIP_Cuts_Covers-CPXPARAM_MIP_Cuts_FlowCovers 1
Instance117
Gap

0.50%
0.50%
0.50%
0.50%
0.00%
CPXPARAM_MIP_Cuts_CPXPARAM_MIP_Cuts_MIRCut-CPXPARAM_MIP_Cuts_Covers-CPXPARAM_MIP_Cuts_FlowCovers 0
Instance118
CPXPARAM_MIP_Cuts_CPXPARAM_MIP_Cuts_MIRCut-CPXPARAM_MIP_Cuts_Covers-CPXPARAM_MIP_Cuts_FlowCovers 0
Instance119
CPXPARAM_MIP_Cuts_CPXPARAM_MIP_Cuts_MIRCut-CPXPARAM_MIP_Cuts_Covers-CPXPARAM_MIP_Cuts_FlowCovers 0
